g3 2 1 0	# problem inst_sans_ref
 16 32 1 0 8	# vars, constraints, objectives, ranges, eqns
 8 1	# nonlinear constraints, objectives
 0 0	# network constraints: nonlinear, linear
 8 8 8	# nonlinear vars in constraints, objectives, both
 0 0 0 1	# linear network variables; functions; arith, flags
 0 0 0 0 0	# discrete variables: binary, integer, nonlinear (b,c,o)
 64 16	# nonzeros in Jacobian, gradients
 0 0	# max name lengths: constraints, variables
 0 0 0 0 0	# common exprs: b,c,o,c1,o1
b
0 0 1
0 0 1
0 0 1
0 0 1
0 0 1
0 0 1
0 0 1
0 0 1
0 0 1
0 0 1
0 0 1
0 0 1
0 0 1
0 0 1
0 0 1
0 0 1
r
4 0
4 0
4 0
4 0
4 0
4 0
4 0
4 0
1 0
1 0
1 0
1 0
1 0
1 0
1 0
1 0
2 -1
2 -1
2 -1
2 -1
2 -1
2 -1
2 -1
2 -1
2 0
2 0
2 0
2 0
2 0
2 0
2 0
2 0
C0
o16
o2
v0
v0
C1
o16
o2
v1
v1
C2
o16
o2
v2
v2
C3
o16
o2
v3
v3
C4
o16
o2
v4
v4
C5
o16
o2
v5
v5
C6
o16
o2
v6
v6
C7
o16
o2
v7
v7
C8
n0
C9
n0
C10
n0
C11
n0
C12
n0
C13
n0
C14
n0
C15
n0
C16
n0
C17
n0
C18
n0
C19
n0
C20
n0
C21
n0
C22
n0
C23
n0
C24
n0
C25
n0
C26
n0
C27
n0
C28
n0
C29
n0
C30
n0
C31
n0
O0 0
o54
24
o2
o2
n0.180862
v0
v0
o2
o2
n3.089751
v1
v1
o2
o2
n0.33
v1
v4
o2
o2
n0.24
v1
v5
o2
o2
n-0.64
v1
v6
o2
o2
n-0.93
v1
v7
o2
o2
n0.943786
v2
v2
o2
o2
n0.115
v2
v4
o2
o2
n-0.87
v2
v6
o2
o2
n0.49812
v3
v3
o2
o2
n0.44
v3
v5
o2
o2
n0.13
v3
v7
o2
o2
n0.33
v4
v1
o2
o2
n0.115
v4
v2
o2
o2
n0.139982
v4
v4
o2
o2
n0.24
v5
v1
o2
o2
n0.44
v5
v3
o2
o2
n0.581247
v5
v5
o2
o2
n-0.64
v6
v1
o2
o2
n-0.87
v6
v2
o2
o2
n2.272842
v6
v6
o2
o2
n-0.93
v7
v1
o2
o2
n0.13
v7
v3
o2
o2
n0.790196
v7
v7
k15
4
8
12
16
20
24
28
32
36
40
44
48
52
56
60
J0 2
0 0
8 1
J1 2
1 0
9 1
J2 2
2 0
10 1
J3 2
3 0
11 1
J4 2
4 0
12 1
J5 2
5 0
13 1
J6 2
6 0
14 1
J7 2
7 0
15 1
J8 2
0 -1
8 1
J9 2
1 -1
9 1
J10 2
2 -1
10 1
J11 2
3 -1
11 1
J12 2
4 -1
12 1
J13 2
5 -1
13 1
J14 2
6 -1
14 1
J15 2
7 -1
15 1
J16 2
0 -2
8 1
J17 2
1 -2
9 1
J18 2
2 -2
10 1
J19 2
3 -2
11 1
J20 2
4 -2
12 1
J21 2
5 -2
13 1
J22 2
6 -2
14 1
J23 2
7 -2
15 1
J24 2
0 -1
8 1
J25 2
1 -1
9 1
J26 2
2 -1
10 1
J27 2
3 -1
11 1
J28 2
4 -1
12 1
J29 2
5 -1
13 1
J30 2
6 -1
14 1
J31 2
7 -1
15 1
G0 16
0 0.34
1 -0.97
2 0.47
3 0.37
4 -0.72
5 0.25
6 -0.77
7 0.85
8 -0.180862
9 -3.089751
10 -0.943786
11 -0.49812
12 -0.139982
13 -0.581247
14 -2.272842
15 -0.790196
